(declare-const X String)
; /^\/[0-9]{8}\.html$/U
(assert (str.in.re X (re.++ (str.to.re "//") ((_ re.loop 8 8) (re.range "0" "9")) (str.to.re ".html/U\x0a"))))
; ^(0?[1-9]|1[0-2])\/(0?[1-9]|[1-2][0-9]|3[0-1])\/(0[1-9]|[1-9][0-9]|175[3-9]|17[6-9][0-9]|1[8-9][0-9]{2}|[2-9][0-9]{3})$
(assert (not (str.in.re X (re.++ (re.union (re.++ (re.opt (str.to.re "0")) (re.range "1" "9")) (re.++ (str.to.re "1") (re.range "0" "2"))) (str.to.re "/") (re.union (re.++ (re.opt (str.to.re "0")) (re.range "1" "9")) (re.++ (re.range "1" "2") (re.range "0" "9")) (re.++ (str.to.re "3") (re.range "0" "1"))) (str.to.re "/") (re.union (re.++ (str.to.re "0") (re.range "1" "9")) (re.++ (re.range "1" "9") (re.range "0" "9")) (re.++ (str.to.re "175") (re.range "3" "9")) (re.++ (str.to.re "17") (re.range "6" "9") (re.range "0" "9")) (re.++ (str.to.re "1") (re.range "8" "9") ((_ re.loop 2 2) (re.range "0" "9"))) (re.++ (re.range "2" "9") ((_ re.loop 3 3) (re.range "0" "9")))) (str.to.re "\x0a")))))
; Host\x3A\s+User-Agent\x3A.*LogsHost\x3AHost\x3A
(assert (not (str.in.re X (re.++ (str.to.re "Host:") (re.+ (re.union (str.to.re " ") (str.to.re "\x09") (str.to.re "\x0a") (str.to.re "\x0c") (str.to.re "\x0d"))) (str.to.re "User-Agent:") (re.* re.allchar) (str.to.re "LogsHost:Host:\x0a")))))
; HWAE\s+\x2Fta\x2FNEWS\x2FGuptacharloomcompany\x2Ecom
(assert (not (str.in.re X (re.++ (str.to.re "HWAE") (re.+ (re.union (str.to.re " ") (str.to.re "\x09") (str.to.re "\x0a") (str.to.re "\x0c") (str.to.re "\x0d"))) (str.to.re "/ta/NEWS/Guptacharloomcompany.com\x0a")))))
(check-sat)
